objective value:                                   -4
t_n_8                                               1 	(obj:-1)
t_n_824                                             1 	(obj:-1)
t_n_1683                                            1 	(obj:-1)
t_n_1877                                            1 	(obj:-1)
